c 4 __LINUXTHREADS_OLD__
c 1 __UCLIBC_HAS_CTYPE_TABLES__
c 2 __UCLIBC_HAS_THREADS_NATIVE__
c 3 __UCLIBC_HAS_XLOCALE__
c 7 __UCLIBC_HAS_LOCALE__
c 8 __LINUXTHREADS_NEW__
c 6 __UCLIBC_HAS_THREADS__
c 5 __MALLOC_SIMPLE__
p cnf 8 2
1 2 4 -3 -6 7 -5 8 1
1 -3 6 7 -5 1
